data/benchmarks/bayes/90-15-6-q.cnf
p cnf 1065 937
c weights 0.0182564 0.9817436 1 1 1 1 1 1 1 1 1 1 1 1 1 1 1 1 1 1 1 1 1 1 1 1 1 1 1 1 1 1 1 1 1 1 1 1 1 1 1 1 1 1 1 1 1 1 1 1 1 1 1 1 1 1 1 1 1 1 1 1 1 1 1 1 1 1 1 1 1 1 1 1 1 1 1 1 1 1 1 1 1 1 1 1 1 1 1 1 1 1 1 1 1 1 1 1 1 1 1 1 1 1 1 1 1 1 1 1 1 1 1 1 1 1 1 1 1 1 1 1 1 1 1 1 1 1 1 1 1 1 1 1 1 1 1 1 1 1 1 1 1 1 1 1 1 1 1 1 1 1 1 1 1 1 1 1 1 1 1 1 1 1 1 1 1 1 1 1 1 1 1 1 1 1 1 1 1 1 1 1 1 1 1 1 1 1 1 1 1 1 1 1 1 1 1 1 1 1 1 1 1 1 1 1 1 1 1 1 1 1 1 1 1 1 1 1 1 1 1 1 1 1 1 1 1 1 1 1 1 1 1 1 1 1 1 1 1 1 1 1 1 1 1 1 1 1 1 1 1 1 1 1 1 1 1 1 1 1 1 1 1 1 1 1 1 1 1 1 1 1 1 1 1 1 1 1 1 1 1 1 1 1 1 1 1 1 1 1 1 1 1 1 1 1 1 1 1 1 1 1 1 1 1 1 1 1 1 1 1 1 1 1 1 1 1 1 1 1 1 1 1 1 1 1 1 1 1 1 1 1 1 1 1 1 1 1 1 1 1 1 1 1 1 1 1 1 1 1 1 1 1 1 1 1 1 1 1 1 1 1 1 1 1 1 1 1 1 1 1 1 1 1 1 1 1 1 1 1 1 1 1 1 1 1 1 1 1 1 1 1 1 1 1 1 1 1 1 1 1 1 1 1 1 1 1 1 1 1 1 1 1 1 1 1 1 1 1 1 1 1 1 1 1 1 1 1 1 1 1 1 1 1 1 1 1 1 1 1 1 1 1 1 1 1 1 1 1 1 0.5 0.5 0.5 0.5 0.5 0.5 0.5 0.5 0.977127 0.022873000000000032 0.986954 0.013046000000000002 0.607431 0.39256899999999995 0.846138 0.15386200000000005 0.5 0.5 0.5 0.5 0.5 0.5 0.5 0.5 0.5 0.5 0.5 0.5 0.686138 0.313862 0.842241 0.15775899999999998 0.5 0.5 0.5 0.5 0.5 0.5 0.5 0.5 0.5 0.5 0.5 0.5 0.5 0.5 0.5 0.5 0.5 0.5 0.5 0.5 0.5 0.5 0.5 0.5 0.5 0.5 0.5 0.5 0.5 0.5 0.5 0.5 0.5 0.5 0.5 0.5 0.5 0.5 0.5 0.5 0.5 0.5 0.5 0.5 0.5 0.5 0.5 0.5 0.5 0.5 0.5 0.5 0.5 0.5 0.5 0.5 0.5 0.5 0.5 0.5 0.5 0.5 0.5 0.5 0.5 0.5 0.5 0.5 0.5 0.5 0.5 0.5 0.5 0.5 0.5 0.5 0.859509 0.14049100000000003 0.54394 0.45606 0.931025 0.06897500000000001 0.0909048 0.9090952 0.5 0.5 0.5 0.5 0.5 0.5 0.5 0.5 0.5 0.5 0.5 0.5 0.5 0.5 0.5 0.5 0.5 0.5 0.5 0.5 0.5 0.5 0.5 0.5 0.843423 0.15657699999999997 0.953719 0.04628100000000002 0.492698 0.5073019999999999 0.77505 0.22494999999999998 0.5 0.5 0.5 0.5 0.5 0.5 0.5 0.5 0.0331866 0.9668134 0.503993 0.496007 0.455331 0.5446690000000001 0.964212 0.03578800000000004 0.5 0.5 0.5 0.5 0.5 0.5 0.5 0.5 0.5 0.5 0.5 0.5 0.5 0.5 0.5 0.5 0.5 0.5 0.5 0.5 0.5 0.5 0.5 0.5 0.5 0.5 0.5 0.5 0.5 0.5 0.5 0.5 0.5 0.5 0.5 0.5 0.5 0.5 0.5 0.5 0.5 0.5 0.5 0.5 0.5 0.5 0.5 0.5 0.5 0.5 0.5 0.5 0.5 0.5 0.5 0.5 0.5 0.5 0.5 0.5 0.5 0.5 0.5 0.5 0.5 0.5 0.5 0.5 0.5 0.5 0.5 0.5 0.5 0.5 0.5 0.5 0.5 0.5 0.5 0.5 0.5 0.5 0.5 0.5 0.5 0.5 0.5 0.5 0.5 0.5 0.5 0.5 0.5 0.5 0.5 0.5 0.5 0.5 0.5 0.5 0.5 0.5 0.5 0.5 0.5 0.5 0.5 0.5 0.5 0.5 0.5 0.5 0.5 0.5 0.5 0.5 0.5 0.5 0.5 0.5 0.5 0.5 0.5 0.5 0.5 0.5 0.5 0.5 0.242906 0.7570939999999999 0.686114 0.313886 0.66626 0.33374000000000004 0.883805 0.11619500000000005 0.5 0.5 0.5 0.5 0.5 0.5 0.5 0.5 0.5 0.5 0.5 0.5 0.5 0.5 0.5 0.5 0.5 0.5 0.5 0.5 0.5 0.5 0.5 0.5 0.5 0.5 0.5 0.5 0.5 0.5 0.5 0.5 0.5 0.5 0.5 0.5 0.5 0.5 0.5 0.5 0.5 0.5 0.5 0.5 0.5 0.5 0.5 0.5 0.5 0.5 0.5 0.5 0.5 0.5 0.5 0.5 0.5 0.5 0.5 0.5 0.5 0.5 0.5 0.5 0.5 0.5 0.5 0.5 0.5 0.5 0.5 0.5 0.5 0.5 0.5 0.5 0.5 0.5 0.5 0.5 0.5 0.5 0.5 0.5 0.5 0.5 0.5 0.5 0.5 0.5 0.5 0.5 0.5 0.5 0.5 0.5 0.5 0.5 0.5 0.5 0.5 0.5 0.5 0.5 0.5 0.5 0.5 0.5 0.5 0.5 0.5 0.5 0.5 0.5 0.5 0.5 0.5 0.5 0.5 0.5 0.5 0.5 0.5 0.5 0.506832 0.49316800000000005 0.536207 0.463793 0.790829 0.209171 0.313616 0.686384 0.5 0.5 0.5 0.5 0.5 0.5 0.5 0.5 0.5 0.5 0.5 0.5 0.5 0.5 0.5 0.5 0.5 0.5 0.5 0.5 0.5 0.5 0.5 0.5 0.5 0.5 0.5 0.5 0.5 0.5 0.5 0.5 0.5 0.5 0.5 0.5 0.5 0.5 0.5 0.5 0.5 0.5 0.5 0.5 0.5 0.5 0.5 0.5 0.5 0.5 0.5 0.5 0.5 0.5 0.5 0.5 0.5 0.5 0.5 0.5 0.5 0.5 0.5 0.5 0.5 0.5 0.5 0.5 0.5 0.5 0.5 0.5 0.5 0.5 0.5 0.5 0.5 0.5 0.5 0.5 0.5 0.5 0.5 0.5 0.5 0.5 0.5 0.5 0.5 0.5 0.5 0.5 0.5 0.5 0.5 0.5 0.5 0.5 0.5 0.5 0.5 0.5 0.5 0.5 0.5 0.5 0.5 0.5 0.5 0.5 0.5 0.5 0.5 0.5 0.5 0.5 0.5 0.5 0.5 0.5 0.5 0.5 0.5 0.5 0.54089 0.45911 0.305034 0.694966 0.36035 0.63965 0.646224 0.353776 0.5 0.5 0.5 0.5 0.5 0.5 0.5 0.5 0.5 0.5 0.5 0.5 0.5 0.5 0.5 0.5 0.5 0.5 0.5 0.5 0.5 0.5 0.5 0.5 0.5 0.5 0.5 0.5 0.5 0.5 0.5 0.5 0.5 0.5 0.5 0.5 0.5 0.5 0.5 0.5 0.11007 0.88993 0.33275 0.66725 0.214448 0.785552 0.470419 0.5295810000000001 0.0972951 0.9027049 0.0937264 0.9062736 0.977731 0.022268999999999983 0.65928 0.34072 0.5 0.5 0.5 0.5 0.5 0.5 0.5 0.5 0.5 0.5 0.5 0.5 0.5 0.5 0.5 0.5 0.5 0.5 0.5 0.5 0.5 0.5 0.5 0.5 0.5 0.5 0.5 0.5 0.5 0.5 0.5 0.5 0.5 0.5 0.5 0.5 0.5 0.5 0.5 0.5 0.5 0.5 0.5 0.5 0.5 0.5 0.5 0.5 0.5 0.5 0.5 0.5 0.5 0.5 0.5 0.5 0.5 0.5 0.5 0.5 0.5 0.5 0.5 0.5 0.5 0.5 0.5 0.5 0.5 0.5 0.5 0.5 0.5 0.5 0.5 0.5 0.5 0.5 0.5 0.5 0.5 0.5 0.5 0.5 0.5 0.5 0.5 0.5 0.5 0.5 0.5 0.5 0.5 0.5 0.5 0.5 0.5 0.5 0.5 0.5 0.5 0.5 0.5 0.5 0.5 0.5 0.5 0.5 0.904442 0.09555800000000003 0.0216555 0.9783445 0.899198 0.10080199999999995 0.732529 0.267471 0.5 0.5 0.5 0.5 0.5 0.5 0.5 0.5 0.5 0.5 0.5 0.5 0.5 0.5 0.5 0.5 0.5 0.5 0.5 0.5 0.5 0.5 0.5 0.5 0.5 0.5 0.5 0.5 0.5 0.5 0.5 0.5 0.5 0.5 0.5 0.5 0.5 0.5 0.5 0.5 0.5 0.5 0.5 0.5 0.5 0.5 0.5 0.5 0.5 0.5 0.5 0.5 0.873015 0.12698500000000001 0.232483 0.767517 0.088889 0.911111 0.445154 0.554846 0.5 0.5 0.5 0.5 0.5 0.5 0.5 0.5 0.5 0.5 0.5 0.5 0.5 0.5 0.5 0.5 0.5 0.5 0.5 0.5 0.5 0.5 0.5 0.5 0.5 0.5 0.5 0.5 0.5 0.5 0.5 0.5 0.5 0.5 0.5 0.5 0.5 0.5 0.5 0.5 0.131411 0.868589 0.310911 0.6890890000000001 0.306743 0.693257 0.736872 0.26312800000000003 0.362369 0.6376310000000001 0.632323 0.36767700000000003 0.873123 0.12687700000000002 0.022686 0.977314 0.5 0.5 0.5 0.5 0.5 0.5 0.5 0.5 0.5 0.5 0.5 0.5 0.5 0.5 0.5 0.5 0.5 0.5 0.5 0.5 0.5 0.5 0.5 0.5 0.5 0.5 0.5 0.5 0.941851 0.058149000000000006 0.750955 0.24904499999999996 0.828645 0.17135500000000004 0.0732628 0.9267372 0.5 0.5 0.5 0.5 0.5 0.5 0.5 0.5 0.5 0.5 0.5 0.5 0.5 0.5 0.5 0.5 0.5 0.5 0.5 0.5 0.5 0.5 0.5 0.5 0.22324 0.77676 0.0184946 0.9815054 0.988529 0.011471000000000009 0.0842829 0.9157171 0.5 0.5 0.5 0.5 0.5 0.5 0.5 0.5 0.5 0.5 0.5 0.5 0.5 0.5 0.5 0.5 0.5 0.5 0.5 0.5 0.5 0.5 0.5 0.5 0.5 0.5 0.5 0.5 0.5 0.5 0.5 0.5 0.5 0.5 0.5 0.5 0.5 0.5 0.5 0.5 0.5 0.5 0.5 0.5 0.5 0.5 0.5 0.5 0.5 0.5 0.5 0.5 0.5 0.5 0.5 0.5 0.5 0.5 0.5 0.5 0.5 0.5 0.5 0.5 0.5 0.5 0.5 0.5 0.5 0.5 0.5 0.5 0.5 0.5 0.5 0.5 0.5 0.5 0.5 0.5 0.5 0.5 0.5 0.5 0.5 0.5 0.5 0.5 0.5 0.5 0.5 0.5 0.5 0.5 0.5 0.5 0.5 0.5 0.5 0.5 0.5 0.5 0.5 0.5 0.5 0.5 0.5 0.5 0.5 0.5 0.5 0.5 0.5 0.5 0.5 0.5 0.5 0.5 0.5 0.5 0.5 0.5 0.5 0.5 0.5 0.5 0.5 0.5 0.5 0.5 0.5 0.5 0.5 0.5 0.5 0.5 0.5 0.5 0.5 0.5 0.5 0.5 0.5 0.5 0.5 0.5 0.5 0.5 0.5 0.5 0.5 0.5 0.5 0.5 0.5 0.5 0.5 0.5 0.5 0.5 0.5 0.5 0.5 0.5 0.5 0.5 0.5 0.5 0.5 0.5 0.5 0.5 0.5 0.5 0.5 0.5 0.5 0.5 0.5 0.5 0.5 0.5 0.5 0.5 0.5 0.5 0.5 0.5 0.5 0.5 0.5 0.5 0.5 0.5 0.5 0.5 0.5 0.5 0.5 0.5 0.5 0.5 0.5 0.5 0.5 0.5 0.5 0.5 0.5 0.5 0.5 0.5 0.5 0.5 0.5 0.5 0.5 0.5 0.5 0.5 0.5 0.5 0.5 0.5 0.5 0.5 0.5 0.5 0.5 0.5 0.5 0.5 0.5 0.5 0.5 0.5 0.5 0.5 0.5 0.5 0.5 0.5 0.5 0.5 0.5 0.5 0.5 0.5 0.5 0.5 0.5 0.5 0.5 0.5 0.5 0.5 0.5 0.5 0.5 0.5 0.5 0.5 0.5 0.5 0.5 0.5 0.5 0.5 0.5 0.5 0.5 0.5 0.5 0.5 0.5 0.5 0.5 0.5 0.5 0.5 0.5 0.5 0.5 0.5 0.5 0.5 0.5 0.5 0.5 0.5 0.5 0.5 0.5 0.5 0.5 0.5 0.5 0.5 0.5 0.5 0.5 0.5 0.5 0.5 0.5 0.5 0.5 0.5 0.5 0.5 0.5 0.5 0.5 0.5 0.5 0.5 0.5 0.5 0.5 0.5 0.5 0.5 0.5 0.5 0.5 0.5 0.5 0.5 0.5 0.5 0.5 0.5 0.5 0.5 0.5 0.5 0.5 0.5 0.5 0.5 0.5 0.5 0.5 0.5 0.5 0.5 0.5 0.5 0.5 0.5 0.5 0.5 0.5 0.5 0.5 0.5 0.5 0.5 0.5 0.5 0.5 0.5 0.5 0.5 0.5 0.5 0.5 0.5 0.5 0.5 0.5 0.5 0.5 0.5 0.5 0.5 0.5 0.5 0.5 0.5 0.5 0.5 0.5 0.5 0.5 0.5 0.5 0.5 0.5 0.5 0.5 0.5 0.5 0.5 0.5 0.5 0.5 0.5 0.5 0.5 0.5 0.5 0.5 0.5 0.5 0.5 0.5 0.5 0.5 0.5 0.5 0.5 0.274228 0.725772 0.106824 0.893176 0.5 0.5 0.5 0.5 0.5 0.5 0.5 0.5 0.5 0.5 0.5 0.5 0.5 0.5 0.5 0.5 0.5 0.5 0.5 0.5 0.5 0.5 0.5 0.5 0.5 0.5 0.5 0.5 0.5 0.5 0.5 0.5 0.5 0.5 0.5 0.5 0.5 0.5 0.5 0.5 0.5 0.5 0.5 0.5 0.5 0.5 0.5 0.5 0.5 0.5 0.5 0.5 0.5 0.5 0.5 0.5 0.5 0.5 0.5 0.5 0.5 0.5 0.5 0.5 0.5 0.5 0.5 0.5 0.5 0.5 0.5 0.5 0.0277014 0.9722986 0.762704 0.23729599999999995 0.913743 0.08625700000000003 0.0302791 0.9697209 0.5 0.5 0.5 0.5 0.5 0.5 0.5 0.5 0.5 0.5 0.5 0.5 0.5 0.5 0.5 0.5 0.5 0.5 0.5 0.5 0.5 0.5 0.5 0.5 0.5 0.5 0.5 0.5 0.5 0.5 0.5 0.5 0.5 0.5 0.5 0.5 0.5 0.5 0.5 0.5 0.5 0.5 0.5 0.5 0.5 0.5 0.5 0.5 0.5 0.5 0.5 0.5 0.5 0.5 0.5 0.5 0.5 0.5 0.5 0.5 0.644828 0.35517200000000004 0.0609463 0.9390537 0.92066 0.07933999999999997 0.0443711 0.9556289 0.5 0.5 0.5 0.5 0.5 0.5 0.5 0.5 0.5 0.5 0.5 0.5 0.5 0.5 0.5 0.5 0.453509 0.5464910000000001 0.143129 0.8568709999999999 0.236135 0.763865 0.661542 0.33845800000000004 0.484736 0.5152639999999999 0.899855 0.10014500000000004 0.1699 0.8301000000000001 0.51249 0.48751 0.5 0.5 0.5 0.5 0.5 0.5 0.5 0.5 0.5 0.5 0.5 0.5 0.5 0.5 0.5 0.5 0.5 0.5 0.5 0.5 0.5 0.5 0.5 0.5 0.5 0.5 0.5 0.5 0.5 0.5 0.5 0.5 0.5 0.5 0.5 0.5 0.5 0.5 0.5 0.5 0.614924 0.385076 0.037354 0.962646 0.884184 0.11581600000000003 0.784824 0.21517600000000003 0.5 0.5 0.5 0.5 0.268599 0.731401 0.295846 0.704154 0.585961 0.41403900000000005 0.701713 0.29828699999999997 0.5 0.5 0.5 0.5 0.5 0.5 0.5 0.5 0.5 0.5 0.5 0.5 0.5 0.5 0.5 0.5 0.5 0.5 0.5 0.5 0.5 0.5 0.5 0.5 0.5 0.5 0.5 0.5 0.5 0.5 0.5 0.5 0.5 0.5 0.5 0.5 0.5 0.5 0.5 0.5 0.5 0.5 0.5 0.5 0.5 0.5 0.5 0.5 0.402168 0.5978319999999999 0.677106 0.322894 0.163496 0.836504 0.907726 0.09227399999999997 0.5 0.5 0.5 0.5 0.5 0.5 0.5 0.5 0.5 0.5 0.5 0.5 0.5 0.5 0.5 0.5 0.6949 0.30510000000000004 0.501812 0.49818799999999996 0.819286 0.18071400000000004 0.105111 0.894889 0.5 0.5 0.5 0.5 0.5 0.5 0.5 0.5 0.5 0.5 0.5 0.5 0.5 0.5 0.5 0.5 0.5 0.5 0.5 0.5 0.5 0.5 0.5 0.5
-1 -2 0
1 2 0
-2 3 0
2 -3 0
-3 -230 4 0
-3 230 -4 0
3 -231 4 0
3 231 -4 0
-4 -232 5 0
-4 232 -5 0
4 -233 5 0
4 233 -5 0
-5 -6 0
5 6 0
-6 -7 0
6 7 0
-7 8 0
7 -8 0
-8 -240 9 0
-8 240 -9 0
8 -241 9 0
8 241 -9 0
-9 10 0
9 -10 0
-10 -11 0
10 11 0
-11 -12 0
11 12 0
-12 13 0
12 -13 0
-13 14 0
13 -14 0
-14 15 0
14 -15 0
-1 16 0
1 -16 0
-16 -2 17 0
-16 2 17 0
16 -2 -17 0
16 2 17 0
-17 -3 18 0
-17 3 -18 0
17 -3 18 0
17 3 18 0
-18 -4 -19 0
-18 4 -19 0
18 -4 19 0
18 4 -19 0
-19 -5 -20 0
-19 5 20 0
19 -5 20 0
19 5 -20 0
-20 -6 -21 0
-20 6 -21 0
20 -6 -21 0
20 6 21 0
-21 -7 22 0
-21 7 -22 0
21 -7 22 0
21 7 22 0
-22 -8 -280 23 0
-22 -8 280 -23 0
-22 8 -281 23 0
-22 8 281 -23 0
22 -8 -282 23 0
22 -8 282 -23 0
22 8 -283 23 0
22 8 283 -23 0
-23 -9 -24 0
-23 9 -24 0
23 -9 -24 0
23 9 24 0
-24 -10 25 0
-24 10 25 0
24 -10 -25 0
24 10 -25 0
-25 -11 -26 0
-25 11 -26 0
25 -11 26 0
25 11 26 0
-26 -12 -296 27 0
-26 -12 296 -27 0
-26 12 -297 27 0
-26 12 297 -27 0
26 -12 -298 27 0
26 -12 298 -27 0
26 12 -299 27 0
26 12 299 -27 0
-27 -13 28 0
-27 13 -28 0
27 -13 -28 0
27 13 -28 0
-28 -14 -304 29 0
-28 -14 304 -29 0
-28 14 -305 29 0
-28 14 305 -29 0
28 -14 -306 29 0
28 -14 306 -29 0
28 14 -307 29 0
28 14 307 -29 0
-29 -15 -30 0
-29 15 -30 0
29 -15 -30 0
29 15 30 0
-16 -31 0
16 31 0
-31 -17 32 0
-31 17 -32 0
31 -17 -32 0
31 17 32 0
-32 -18 33 0
-32 18 -33 0
32 -18 -33 0
32 18 -33 0
-33 -19 -34 0
-33 19 34 0
33 -19 34 0
33 19 -34 0
-34 -20 35 0
-34 20 -35 0
34 -20 -35 0
34 20 35 0
-35 -21 36 0
-35 21 36 0
35 -21 -36 0
35 21 -36 0
-36 -22 -37 0
-36 22 -37 0
36 -22 37 0
36 22 -37 0
-37 -23 38 0
-37 23 -38 0
37 -23 38 0
37 23 38 0
-38 -24 -39 0
-38 24 -39 0
38 -24 39 0
38 24 -39 0
-39 -25 40 0
-39 25 -40 0
39 -25 -40 0
39 25 40 0
-40 -26 -41 0
-40 26 41 0
40 -26 41 0
40 26 41 0
-41 -27 42 0
-41 27 -42 0
41 -27 -42 0
41 27 -42 0
-42 -28 43 0
-42 28 43 0
42 -28 -43 0
42 28 43 0
-43 -29 -44 0
-43 29 -44 0
43 -29 44 0
43 29 -44 0
-44 -30 45 0
-44 30 45 0
44 -30 45 0
44 30 -45 0
-31 46 0
31 -46 0
-46 -32 -372 47 0
-46 -32 372 -47 0
-46 32 -373 47 0
-46 32 373 -47 0
46 -32 -374 47 0
46 -32 374 -47 0
46 32 -375 47 0
46 32 375 -47 0
-47 -33 48 0
-47 33 -48 0
47 -33 -48 0
47 33 -48 0
-48 -34 49 0
-48 34 -49 0
48 -34 -49 0
48 34 -49 0
-49 -35 50 0
-49 35 50 0
49 -35 -50 0
49 35 50 0
-50 -36 -51 0
-50 36 -51 0
50 -36 -51 0
50 36 51 0
-51 -37 52 0
-51 37 -52 0
51 -37 52 0
51 37 52 0
-52 -38 53 0
-52 38 -53 0
52 -38 -53 0
52 38 -53 0
-53 -39 54 0
-53 39 54 0
53 -39 54 0
53 39 -54 0
-54 -40 55 0
-54 40 -55 0
54 -40 -55 0
54 40 -55 0
-55 -41 -56 0
-55 41 -56 0
55 -41 -56 0
55 41 56 0
-56 -42 -57 0
-56 42 -57 0
56 -42 57 0
56 42 -57 0
-57 -43 -58 0
-57 43 58 0
57 -43 58 0
57 43 -58 0
-58 -44 59 0
-58 44 -59 0
58 -44 -59 0
58 44 -59 0
-59 -45 60 0
-59 45 -60 0
59 -45 60 0
59 45 60 0
-46 61 0
46 -61 0
-61 -47 62 0
-61 47 62 0
61 -47 62 0
61 47 -62 0
-62 -48 63 0
-62 48 -63 0
62 -48 -63 0
62 48 63 0
-63 -49 -438 64 0
-63 -49 438 -64 0
-63 49 -439 64 0
-63 49 439 -64 0
63 -49 -440 64 0
63 -49 440 -64 0
63 49 -441 64 0
63 49 441 -64 0
-64 -50 65 0
-64 50 -65 0
64 -50 65 0
64 50 65 0
-65 -51 66 0
-65 51 -66 0
65 -51 66 0
65 51 66 0
-66 -52 -67 0
-66 52 -67 0
66 -52 67 0
66 52 -67 0
-67 -53 -68 0
-67 53 68 0
67 -53 -68 0
67 53 -68 0
-68 -54 69 0
-68 54 -69 0
68 -54 -69 0
68 54 -69 0
-69 -55 -70 0
-69 55 -70 0
69 -55 70 0
69 55 -70 0
-70 -56 71 0
-70 56 -71 0
70 -56 -71 0
70 56 -71 0
-71 -57 72 0
-71 57 72 0
71 -57 72 0
71 57 -72 0
-72 -58 -73 0
-72 58 73 0
72 -58 73 0
72 58 73 0
-73 -59 74 0
-73 59 -74 0
73 -59 -74 0
73 59 -74 0
-74 -60 75 0
-74 60 -75 0
74 -60 75 0
74 60 75 0
-61 76 0
61 -76 0
-76 -62 77 0
-76 62 77 0
76 -62 -77 0
76 62 -77 0
-77 -63 -78 0
-77 63 -78 0
77 -63 78 0
77 63 -78 0
-78 -64 -79 0
-78 64 -79 0
78 -64 -79 0
78 64 79 0
-79 -65 -80 0
-79 65 -80 0
79 -65 80 0
79 65 -80 0
-80 -66 -504 81 0
-80 -66 504 -81 0
-80 66 -505 81 0
-80 66 505 -81 0
80 -66 -506 81 0
80 -66 506 -81 0
80 66 -507 81 0
80 66 507 -81 0
-81 -67 -82 0
-81 67 -82 0
81 -67 -82 0
81 67 82 0
-82 -68 83 0
-82 68 -83 0
82 -68 -83 0
82 68 83 0
-83 -69 -84 0
-83 69 84 0
83 -69 -84 0
83 69 -84 0
-84 -70 -85 0
-84 70 85 0
84 -70 85 0
84 70 85 0
-85 -71 -86 0
-85 71 86 0
85 -71 86 0
85 71 -86 0
-86 -72 -528 87 0
-86 -72 528 -87 0
-86 72 -529 87 0
-86 72 529 -87 0
86 -72 -530 87 0
86 -72 530 -87 0
86 72 -531 87 0
86 72 531 -87 0
-87 -73 -532 88 0
-87 -73 532 -88 0
-87 73 -533 88 0
-87 73 533 -88 0
87 -73 -534 88 0
87 -73 534 -88 0
87 73 -535 88 0
87 73 535 -88 0
-88 -74 89 0
-88 74 -89 0
88 -74 89 0
88 74 89 0
-89 -75 -90 0
-89 75 -90 0
89 -75 90 0
89 75 -90 0
-76 91 0
76 -91 0
-91 -77 -92 0
-91 77 -92 0
91 -77 -92 0
91 77 92 0
-92 -78 -93 0
-92 78 93 0
92 -78 -93 0
92 78 -93 0
-93 -79 -94 0
-93 79 -94 0
93 -79 94 0
93 79 -94 0
-94 -80 95 0
-94 80 95 0
94 -80 -95 0
94 80 -95 0
-95 -81 -96 0
-95 81 96 0
95 -81 96 0
95 81 -96 0
-96 -82 97 0
-96 82 97 0
96 -82 -97 0
96 82 97 0
-97 -83 -98 0
-97 83 98 0
97 -83 -98 0
97 83 98 0
-98 -84 -99 0
-98 84 99 0
98 -84 -99 0
98 84 -99 0
-99 -85 100 0
-99 85 -100 0
99 -85 100 0
99 85 100 0
-100 -86 101 0
-100 86 -101 0
100 -86 -101 0
100 86 101 0
-101 -87 102 0
-101 87 102 0
101 -87 102 0
101 87 -102 0
-102 -88 -590 103 0
-102 -88 590 -103 0
-102 88 -591 103 0
-102 88 591 -103 0
102 -88 -592 103 0
102 -88 592 -103 0
102 88 -593 103 0
102 88 593 -103 0
-103 -89 104 0
-103 89 -104 0
103 -89 104 0
103 89 104 0
-104 -90 105 0
-104 90 105 0
104 -90 105 0
104 90 -105 0
-91 106 0
91 -106 0
-106 -92 -107 0
-106 92 -107 0
106 -92 -107 0
106 92 107 0
-107 -93 -108 0
-107 93 108 0
107 -93 108 0
107 93 108 0
-108 -94 -109 0
-108 94 109 0
108 -94 -109 0
108 94 -109 0
-109 -95 -110 0
-109 95 110 0
109 -95 -110 0
109 95 110 0
-110 -96 -620 111 0
-110 -96 620 -111 0
-110 96 -621 111 0
-110 96 621 -111 0
110 -96 -622 111 0
110 -96 622 -111 0
110 96 -623 111 0
110 96 623 -111 0
-111 -97 -112 0
-111 97 112 0
111 -97 112 0
111 97 112 0
-112 -98 113 0
-112 98 113 0
112 -98 113 0
112 98 -113 0
-113 -99 -114 0
-113 99 -114 0
113 -99 -114 0
113 99 114 0
-114 -100 115 0
-114 100 -115 0
114 -100 115 0
114 100 115 0
-115 -101 116 0
-115 101 -116 0
115 -101 -116 0
115 101 116 0
-116 -102 -644 117 0
-116 -102 644 -117 0
-116 102 -645 117 0
-116 102 645 -117 0
116 -102 -646 117 0
116 -102 646 -117 0
116 102 -647 117 0
116 102 647 -117 0
-117 -103 -648 118 0
-117 -103 648 -118 0
-117 103 -649 118 0
-117 103 649 -118 0
117 -103 -650 118 0
117 -103 650 -118 0
117 103 -651 118 0
117 103 651 -118 0
-118 -104 119 0
-118 104 -119 0
118 -104 -119 0
118 104 -119 0
-119 -105 -120 0
-119 105 -120 0
119 -105 -120 0
119 105 120 0
-106 121 0
106 -121 0
-121 -107 122 0
-121 107 -122 0
121 -107 122 0
121 107 122 0
-122 -108 -666 123 0
-122 -108 666 -123 0
-122 108 -667 123 0
-122 108 667 -123 0
122 -108 -668 123 0
122 -108 668 -123 0
122 108 -669 123 0
122 108 669 -123 0
-123 -109 -124 0
-123 109 124 0
123 -109 124 0
123 109 124 0
-124 -110 -125 0
-124 110 -125 0
124 -110 -125 0
124 110 125 0
-125 -111 -126 0
-125 111 126 0
125 -111 -126 0
125 111 -126 0
-126 -112 -682 127 0
-126 -112 682 -127 0
-126 112 -683 127 0
-126 112 683 -127 0
126 -112 -684 127 0
126 -112 684 -127 0
126 112 -685 127 0
126 112 685 -127 0
-127 -113 128 0
-127 113 128 0
127 -113 -128 0
127 113 -128 0
-128 -114 129 0
-128 114 -129 0
128 -114 -129 0
128 114 129 0
-129 -115 -130 0
-129 115 130 0
129 -115 130 0
129 115 130 0
-130 -116 -131 0
-130 116 131 0
130 -116 -131 0
130 116 -131 0
-131 -117 -132 0
-131 117 -132 0
131 -117 -132 0
131 117 132 0
-132 -118 -133 0
-132 118 133 0
132 -118 -133 0
132 118 -133 0
-133 -119 134 0
-133 119 -134 0
133 -119 -134 0
133 119 -134 0
-134 -120 135 0
-134 120 135 0
134 -120 -135 0
134 120 135 0
-121 136 0
121 -136 0
-136 -122 137 0
-136 122 137 0
136 -122 137 0
136 122 -137 0
-137 -123 -138 0
-137 123 -138 0
137 -123 138 0
137 123 -138 0
-138 -124 139 0
-138 124 139 0
138 -124 -139 0
138 124 139 0
-139 -125 -140 0
-139 125 140 0
139 -125 -140 0
139 125 140 0
-140 -126 -141 0
-140 126 141 0
140 -126 -141 0
140 126 141 0
-141 -127 -142 0
-141 127 142 0
141 -127 142 0
141 127 142 0
-142 -128 143 0
-142 128 -143 0
142 -128 143 0
142 128 143 0
-143 -129 144 0
-143 129 144 0
143 -129 -144 0
143 129 144 0
-144 -130 145 0
-144 130 -145 0
144 -130 -145 0
144 130 -145 0
-145 -131 -146 0
-145 131 146 0
145 -131 -146 0
145 131 -146 0
-146 -132 -147 0
-146 132 -147 0
146 -132 147 0
146 132 -147 0
-147 -133 148 0
-147 133 148 0
147 -133 -148 0
147 133 -148 0
-148 -134 149 0
-148 134 -149 0
148 -134 -149 0
148 134 -149 0
-149 -135 150 0
-149 135 -150 0
149 -135 150 0
149 135 -150 0
-136 -151 0
136 151 0
-151 -137 -152 0
-151 137 152 0
151 -137 152 0
151 137 -152 0
-152 -138 153 0
-152 138 -153 0
152 -138 153 0
152 138 -153 0
-153 -139 154 0
-153 139 -154 0
153 -139 154 0
153 139 -154 0
-154 -140 -155 0
-154 140 155 0
154 -140 -155 0
154 140 155 0
-155 -141 -156 0
-155 141 156 0
155 -141 156 0
155 141 -156 0
-156 -142 157 0
-156 142 157 0
156 -142 -157 0
156 142 157 0
-157 -143 -158 0
-157 143 -158 0
157 -143 158 0
157 143 158 0
-158 -144 -159 0
-158 144 -159 0
158 -144 159 0
158 144 159 0
-159 -145 -160 0
-159 145 160 0
159 -145 160 0
159 145 160 0
-160 -146 -161 0
-160 146 161 0
160 -146 -161 0
160 146 -161 0
-161 -147 162 0
-161 147 162 0
161 -147 162 0
161 147 -162 0
-162 -148 163 0
-162 148 163 0
162 -148 -163 0
162 148 163 0
-163 -149 -164 0
-163 149 164 0
163 -149 -164 0
163 149 164 0
-164 -150 165 0
-164 150 -165 0
164 -150 165 0
164 150 -165 0
-151 -166 0
151 166 0
-166 -152 -167 0
-166 152 167 0
166 -152 167 0
166 152 -167 0
-167 -153 -168 0
-167 153 -168 0
167 -153 -168 0
167 153 168 0
-168 -154 169 0
-168 154 169 0
168 -154 -169 0
168 154 -169 0
-169 -155 170 0
-169 155 170 0
169 -155 -170 0
169 155 170 0
-170 -156 171 0
-170 156 171 0
170 -156 -171 0
170 156 171 0
-171 -157 -172 0
-171 157 -172 0
171 -157 172 0
171 157 -172 0
-172 -158 173 0
-172 158 173 0
172 -158 173 0
172 158 -173 0
-173 -159 -174 0
-173 159 174 0
173 -159 174 0
173 159 174 0
-174 -160 175 0
-174 160 -175 0
174 -160 175 0
174 160 -175 0
-175 -161 -176 0
-175 161 -176 0
175 -161 -176 0
175 161 176 0
-176 -162 177 0
-176 162 -177 0
176 -162 -177 0
176 162 -177 0
-177 -163 -178 0
-177 163 -178 0
177 -163 178 0
177 163 178 0
-178 -164 179 0
-178 164 -179 0
178 -164 -179 0
178 164 -179 0
-179 -165 180 0
-179 165 180 0
179 -165 -180 0
179 165 -180 0
-166 -892 181 0
-166 892 -181 0
166 -893 181 0
166 893 -181 0
-181 -167 -182 0
-181 167 -182 0
181 -167 182 0
181 167 -182 0
-182 -168 183 0
-182 168 183 0
182 -168 -183 0
182 168 183 0
-183 -169 -184 0
-183 169 -184 0
183 -169 -184 0
183 169 184 0
-184 -170 185 0
-184 170 -185 0
184 -170 -185 0
184 170 185 0
-185 -171 -186 0
-185 171 -186 0
185 -171 186 0
185 171 186 0
-186 -172 187 0
-186 172 -187 0
186 -172 187 0
186 172 -187 0
-187 -173 188 0
-187 173 -188 0
187 -173 188 0
187 173 -188 0
-188 -174 189 0
-188 174 189 0
188 -174 189 0
188 174 -189 0
-189 -175 -190 0
-189 175 190 0
189 -175 190 0
189 175 190 0
-190 -176 -930 191 0
-190 -176 930 -191 0
-190 176 -931 191 0
-190 176 931 -191 0
190 -176 -932 191 0
190 -176 932 -191 0
190 176 -933 191 0
190 176 933 -191 0
-191 -177 -192 0
-191 177 -192 0
191 -177 192 0
191 177 192 0
-192 -178 -193 0
-192 178 193 0
192 -178 -193 0
192 178 -193 0
-193 -179 -194 0
-193 179 -194 0
193 -179 194 0
193 179 -194 0
-194 -180 195 0
-194 180 -195 0
194 -180 195 0
194 180 -195 0
-181 196 0
181 -196 0
-196 -182 197 0
-196 182 197 0
196 -182 -197 0
196 182 197 0
-197 -183 198 0
-197 183 -198 0
197 -183 -198 0
197 183 198 0
-198 -184 -199 0
-198 184 -199 0
198 -184 199 0
198 184 -199 0
-199 -185 -964 200 0
-199 -185 964 -200 0
-199 185 -965 200 0
-199 185 965 -200 0
199 -185 -966 200 0
199 -185 966 -200 0
199 185 -967 200 0
199 185 967 -200 0
-200 -186 201 0
-200 186 201 0
200 -186 201 0
200 186 -201 0
-201 -187 202 0
-201 187 -202 0
201 -187 -202 0
201 187 -202 0
-202 -188 -976 203 0
-202 -188 976 -203 0
-202 188 -977 203 0
-202 188 977 -203 0
202 -188 -978 203 0
202 -188 978 -203 0
202 188 -979 203 0
202 188 979 -203 0
-203 -189 -980 204 0
-203 -189 980 -204 0
-203 189 -981 204 0
-203 189 981 -204 0
203 -189 -982 204 0
203 -189 982 -204 0
203 189 -983 204 0
203 189 983 -204 0
-204 -190 205 0
-204 190 205 0
204 -190 205 0
204 190 -205 0
-205 -191 206 0
-205 191 -206 0
205 -191 -206 0
205 191 -206 0
-206 -192 207 0
-206 192 207 0
206 -192 -207 0
206 192 207 0
-207 -193 208 0
-207 193 -208 0
207 -193 208 0
207 193 208 0
-208 -194 -209 0
-208 194 209 0
208 -194 -209 0
208 194 209 0
-209 -195 -1004 210 0
-209 -195 1004 -210 0
-209 195 -1005 210 0
-209 195 1005 -210 0
209 -195 -1006 210 0
209 -195 1006 -210 0
209 195 -1007 210 0
209 195 1007 -210 0
-196 211 0
196 -211 0
-211 -197 -1010 212 0
-211 -197 1010 -212 0
-211 197 -1011 212 0
-211 197 1011 -212 0
211 -197 -1012 212 0
211 -197 1012 -212 0
211 197 -1013 212 0
211 197 1013 -212 0
-212 -198 -213 0
-212 198 -213 0
212 -198 213 0
212 198 213 0
-213 -199 214 0
-213 199 214 0
213 -199 214 0
213 199 -214 0
-214 -200 215 0
-214 200 -215 0
214 -200 215 0
214 200 215 0
-215 -201 -216 0
-215 201 216 0
215 -201 216 0
215 201 -216 0
-216 -202 217 0
-216 202 -217 0
216 -202 217 0
216 202 217 0
-217 -203 -218 0
-217 203 218 0
217 -203 218 0
217 203 -218 0
-218 -204 -1038 219 0
-218 -204 1038 -219 0
-218 204 -1039 219 0
-218 204 1039 -219 0
218 -204 -1040 219 0
218 -204 1040 -219 0
218 204 -1041 219 0
218 204 1041 -219 0
-219 -205 -220 0
-219 205 220 0
219 -205 -220 0
219 205 220 0
-220 -206 -221 0
-220 206 -221 0
220 -206 221 0
220 206 221 0
-221 -207 -1050 222 0
-221 -207 1050 -222 0
-221 207 -1051 222 0
-221 207 1051 -222 0
221 -207 -1052 222 0
221 -207 1052 -222 0
221 207 -1053 222 0
221 207 1053 -222 0
-222 -208 -223 0
-222 208 -223 0
222 -208 223 0
222 208 -223 0
-223 -209 -224 0
-223 209 -224 0
223 -209 224 0
223 209 -224 0
-224 -210 -225 0
-224 210 -225 0
224 -210 225 0
224 210 -225 0
225 0
