data/benchmarks/bayes/90-15-6-q.gr
p tw 1065 896
166 181
198 213
15 30
67 68
47 62
99 100
59 73
107 122
159 160
139 154
8 9
40 41
80 504
199 214
122 668
48 63
100 101
80 95
132 133
92 106
29 306
140 155
192 193
172 187
4 231
41 42
73 74
184 198
33 47
81 96
133 134
111 622
14 15
125 139
173 188
22 37
74 75
190 933
106 107
200 965
87 530
66 80
114 129
166 167
47 48
158 172
203 979
206 221
63 438
7 21
55 70
14 307
107 108
99 113
147 162
199 200
48 49
103 650
80 81
191 205
40 54
96 620
140 141
46 372
132 146
81 82
195 1007
73 87
173 174
188 977
22 23
165 179
14 28
114 115
210 1004
87 534
206 207
102 644
55 56
203 983
198 212
47 61
147 148
207 208
28 304
139 153
88 593
21 36
199 213
127 682
80 94
117 647
113 128
29 305
172 186
4 230
205 220
54 69
181 182
146 161
209 1004
173 187
72 531
200 964
87 102
22 283
214 215
179 194
28 43
206 220
88 103
120 135
21 22
8 241
147 161
180 195
29 44
61 76
113 114
117 651
121 136
153 168
205 206
2 17
54 55
62 77
94 109
146 147
199 967
154 169
188 976
3 18
110 620
35 50
87 88
95 110
103 590
127 142
179 180
28 29
86 528
187 202
219 1039
36 51
88 89
68 83
112 684
166 893
202 977
128 143
222 1053
160 175
29 30
61 62
88 592
21 35
69 84
121 122
108 668
101 116
153 154
117 646
2 3
113 127
204 1041
161 176
213 214
10 25
62 63
94 95
205 219
54 68
102 117
154 155
13 27
3 4
35 36
146 160
194 209
105 119
197 1010
43 58
95 96
127 128
207 1051
87 101
135 150
187 188
36 37
68 69
179 193
28 42
76 91
128 129
160 161
120 134
212 1013
168 183
220 221
79 93
69 70
28 307
101 102
161 162
20 34
10 11
117 650
127 685
153 167
2 16
102 103
94 108
194 195
53 67
43 44
209 1007
35 49
127 141
86 100
76 77
9 24
219 1038
68 82
112 683
168 169
166 892
27 41
116 644
202 976
176 933
160 174
222 1052
88 591
42 57
108 667
101 115
117 645
134 149
60 74
204 1040
191 930
126 684
75 90
12 299
102 592
16 31
218 1041
108 123
207 1050
9 10
103 593
123 669
49 64
186 200
109 124
212 1012
42 43
201 216
82 97
134 135
142 157
23 38
73 533
83 98
115 130
16 17
189 982
175 190
49 441
56 71
108 109
193 207
116 131
49 50
208 223
57 72
109 110
167 182
89 104
32 375
149 164
201 202
50 51
176 932
30 45
82 83
8 283
27 296
42 56
81 505
90 105
142 143
200 215
47 372
23 24
134 148
182 197
83 84
126 683
141 156
115 116
23 280
75 89
123 138
175 176
34 48
24 25
12 298
66 507
56 57
102 591
181 893
64 79
116 117
174 189
218 1040
108 122
156 171
208 209
67 81
211 1010
57 58
167 168
89 90
221 1051
49 63
159 173
26 299
97 112
8 22
149 150
204 980
207 222
189 204
212 1011
100 114
148 163
200 201
185 966
64 438
82 96
182 183
192 206
41 55
31 32
141 142
23 37
133 147
123 124
73 532
181 196
115 129
215 216
74 88
189 981
64 65
122 137
49 440
174 175
56 70
156 157
15 29
5 6
88 535
107 121
97 98
167 181
89 103
32 374
122 667
189 190
48 62
148 149
176 931
30 44
140 154
8 282
63 78
81 504
200 214
118 651
222 223
81 95
4 19
111 621
141 155
22 36
122 123
190 932
87 529
66 506
114 128
37 52
174 188
203 978
55 69
14 306
70 85
221 1050
103 649
26 298
80 507
207 221
11 26
63 64
148 162
185 965
4 5
195 1006
44 59
37 38
87 533
122 136
196 211
155 170
203 982
63 441
96 111
18 33
70 71
88 534
130 131
188 203
204 983
32 373
11 12
122 666
170 185
96 623
129 144
46 375
29 304
8 281
163 164
118 650
44 45
203 218
111 620
162 177
144 159
190 931
72 530
196 197
103 118
87 528
22 282
155 156
210 1007
137 138
195 210
102 647
96 97
203 977
18 19
14 305
177 192
88 102
136 151
188 189
8 240
180 194
103 648
118 133
29 43
80 506
77 92
129 130
170 171
210 225
111 112
169 184
221 222
185 964
4 233
151 166
203 204
62 76
195 1005
110 125
162 163
199 966
154 168
144 145
202 217
3 17
51 66
103 104
95 109
85 86
87 532
143 158
200 967
155 169
187 201
177 178
36 50
203 981
136 137
63 440
96 110
128 142
118 119
77 78
188 202
69 83
169 170
96 622
129 143
161 175
46 374
151 152
10 24
110 111
102 116
202 203
25 40
51 52
162 176
188 979
194 208
43 57
110 623
143 144
72 529
103 117
22 281
135 149
17 32
86 531
195 209
102 646
203 976
168 182
28 306
50 65
77 91
127 684
117 649
169 183
29 307
4 232
25 26
195 1004
110 124
199 965
24 39
209 1006
202 216
51 65
197 1013
84 99
17 18
143 157
176 191
9 23
112 682
117 132
222 1051
209 224
58 73
88 590
108 666
117 644
150 165
204 1039
46 373
31 46
91 106
3 231
183 198
32 47
84 85
158 159
217 218
110 622
124 139
176 177
103 592
5 20
17 31
86 530
65 80
102 645
117 118
123 668
219 1041
109 123
157 172
202 979
209 210
116 647
6 21
58 59
201 215
28 305
191 192
50 64
98 113
142 156
127 683
117 648
190 205
39 54
91 92
191 933
224 225
83 97
131 146
183 184
32 33
199 964
175 189
24 38
209 1005
72 87
124 125
197 1012
84 98
116 130
164 179
216 217
207 1053
65 66
176 190
208 222
198 199
57 71
157 158
6 7
117 131
149 163
139 140
197 212
222 1050
98 99
209 223
58 72
90 104
190 191
39 40
150 164
204 1038
182 196
172 173
126 682
131 132
123 137
223 224
3 230
12 297
72 73
102 590
183 197
32 46
181 892
64 78
164 165
110 621
218 1039
124 138
156 170
103 591
5 19
38 53
86 529
123 667
65 79
97 111
219 1040
197 198
130 145
112 685
157 171
202 978
116 646
6 20
189 203
212 1010
71 86
27 299
98 112
163 178
47 375
108 669
12 27
190 204
39 53
191 932
104 119
23 283
131 145
189 980
13 28
49 439
45 60
72 86
105 120
197 1011
137 152
38 39
164 178
9 241
207 1052
211 1013
46 61
78 93
138 153
19 34
71 72
176 930
197 211
79 94
63 77
111 126
12 13
64 441
171 186
20 35
4 18
52 67
104 105
112 127
73 535
13 14
12 296
66 505
204 219
53 68
37 51
85 100
218 1038
145 160
46 47
26 41
78 79
38 52
86 101
70 84
123 666
138 139
26 297
19 20
130 144
178 193
27 42
11 25
79 80
116 645
71 85
119 134
171 172
27 298
81 507
20 21
52 53
163 177
47 374
12 26
60 75
44 58
112 113
191 931
126 685
104 118
23 282
152 167
204 205
1 16
53 54
49 438
45 59
102 593
93 108
145 146
5 233
26 27
137 151
185 200
9 240
18 32
86 87
88 533
211 1012
78 92
126 141
178 179
221 1053
204 982
27 28
32 372
138 152
186 201
170 184
19 33
119 120
8 280
111 125
211 212
64 440
118 649
171 185
203 217
52 66
152 153
1 2
112 126
73 534
212 213
144 158
190 930
93 94
66 504
210 1006
204 218
189 983
85 99
185 186
145 159
193 208
14 304
177 191
26 40
126 127
59 74
186 187
118 132
26 296
80 505
218 219
122 669
178 192
210 224
92 107
119 133
81 506
27 297
219 220
184 199
47 373
33 48
111 623
125 140
23 281
152 166
34 49
87 531
200 966
66 81
93 107
193 194
5 232
158 173
203 980
63 439
7 22
59 60
185 199
88 532
67 82
211 1011
99 114
126 140
221 1052
103 651
159 174
204 981
191 206
8 23
40 55
92 93
96 621
100 115
132 147
184 185
185 967
33 34
64 439
118 648
192 207
41 56
25 39
73 88
125 126
188 978
133 148
165 180
34 35
14 29
66 67
72 528
22 280
210 1005
74 89
87 535
106 121
7 8
